p cnf 150 3190
1 2 3 4 5 0
6 7 8 9 10 0
11 12 13 14 15 0
16 17 18 19 20 0
21 22 23 24 25 0
26 27 28 29 30 0
31 32 33 34 35 0
36 37 38 39 40 0
41 42 43 44 45 0
46 47 48 49 50 0
51 52 53 54 55 0
56 57 58 59 60 0
61 62 63 64 65 0
66 67 68 69 70 0
71 72 73 74 75 0
76 77 78 79 80 0
81 82 83 84 85 0
86 87 88 89 90 0
91 92 93 94 95 0
96 97 98 99 100 0
101 102 103 104 105 0
106 107 108 109 110 0
111 112 113 114 115 0
116 117 118 119 120 0
121 122 123 124 125 0
126 127 128 129 130 0
131 132 133 134 135 0
136 137 138 139 140 0
141 142 143 144 145 0
146 147 148 149 150 0
-1 -2 0
-1 -3 0
-1 -4 0
-1 -5 0
-2 -3 0
-2 -4 0
-2 -5 0
-3 -4 0
-3 -5 0
-4 -5 0
-6 -7 0
-6 -8 0
-6 -9 0
-6 -10 0
-7 -8 0
-7 -9 0
-7 -10 0
-8 -9 0
-8 -10 0
-9 -10 0
-11 -12 0
-11 -13 0
-11 -14 0
-11 -15 0
-12 -13 0
-12 -14 0
-12 -15 0
-13 -14 0
-13 -15 0
-14 -15 0
-16 -17 0
-16 -18 0
-16 -19 0
-16 -20 0
-17 -18 0
-17 -19 0
-17 -20 0
-18 -19 0
-18 -20 0
-19 -20 0
-21 -22 0
-21 -23 0
-21 -24 0
-21 -25 0
-22 -23 0
-22 -24 0
-22 -25 0
-23 -24 0
-23 -25 0
-24 -25 0
-26 -27 0
-26 -28 0
-26 -29 0
-26 -30 0
-27 -28 0
-27 -29 0
-27 -30 0
-28 -29 0
-28 -30 0
-29 -30 0
-31 -32 0
-31 -33 0
-31 -34 0
-31 -35 0
-32 -33 0
-32 -34 0
-32 -35 0
-33 -34 0
-33 -35 0
-34 -35 0
-36 -37 0
-36 -38 0
-36 -39 0
-36 -40 0
-37 -38 0
-37 -39 0
-37 -40 0
-38 -39 0
-38 -40 0
-39 -40 0
-41 -42 0
-41 -43 0
-41 -44 0
-41 -45 0
-42 -43 0
-42 -44 0
-42 -45 0
-43 -44 0
-43 -45 0
-44 -45 0
-46 -47 0
-46 -48 0
-46 -49 0
-46 -50 0
-47 -48 0
-47 -49 0
-47 -50 0
-48 -49 0
-48 -50 0
-49 -50 0
-51 -52 0
-51 -53 0
-51 -54 0
-51 -55 0
-52 -53 0
-52 -54 0
-52 -55 0
-53 -54 0
-53 -55 0
-54 -55 0
-56 -57 0
-56 -58 0
-56 -59 0
-56 -60 0
-57 -58 0
-57 -59 0
-57 -60 0
-58 -59 0
-58 -60 0
-59 -60 0
-61 -62 0
-61 -63 0
-61 -64 0
-61 -65 0
-62 -63 0
-62 -64 0
-62 -65 0
-63 -64 0
-63 -65 0
-64 -65 0
-66 -67 0
-66 -68 0
-66 -69 0
-66 -70 0
-67 -68 0
-67 -69 0
-67 -70 0
-68 -69 0
-68 -70 0
-69 -70 0
-71 -72 0
-71 -73 0
-71 -74 0
-71 -75 0
-72 -73 0
-72 -74 0
-72 -75 0
-73 -74 0
-73 -75 0
-74 -75 0
-76 -77 0
-76 -78 0
-76 -79 0
-76 -80 0
-77 -78 0
-77 -79 0
-77 -80 0
-78 -79 0
-78 -80 0
-79 -80 0
-81 -82 0
-81 -83 0
-81 -84 0
-81 -85 0
-82 -83 0
-82 -84 0
-82 -85 0
-83 -84 0
-83 -85 0
-84 -85 0
-86 -87 0
-86 -88 0
-86 -89 0
-86 -90 0
-87 -88 0
-87 -89 0
-87 -90 0
-88 -89 0
-88 -90 0
-89 -90 0
-91 -92 0
-91 -93 0
-91 -94 0
-91 -95 0
-92 -93 0
-92 -94 0
-92 -95 0
-93 -94 0
-93 -95 0
-94 -95 0
-96 -97 0
-96 -98 0
-96 -99 0
-96 -100 0
-97 -98 0
-97 -99 0
-97 -100 0
-98 -99 0
-98 -100 0
-99 -100 0
-101 -102 0
-101 -103 0
-101 -104 0
-101 -105 0
-102 -103 0
-102 -104 0
-102 -105 0
-103 -104 0
-103 -105 0
-104 -105 0
-106 -107 0
-106 -108 0
-106 -109 0
-106 -110 0
-107 -108 0
-107 -109 0
-107 -110 0
-108 -109 0
-108 -110 0
-109 -110 0
-111 -112 0
-111 -113 0
-111 -114 0
-111 -115 0
-112 -113 0
-112 -114 0
-112 -115 0
-113 -114 0
-113 -115 0
-114 -115 0
-116 -117 0
-116 -118 0
-116 -119 0
-116 -120 0
-117 -118 0
-117 -119 0
-117 -120 0
-118 -119 0
-118 -120 0
-119 -120 0
-121 -122 0
-121 -123 0
-121 -124 0
-121 -125 0
-122 -123 0
-122 -124 0
-122 -125 0
-123 -124 0
-123 -125 0
-124 -125 0
-126 -127 0
-126 -128 0
-126 -129 0
-126 -130 0
-127 -128 0
-127 -129 0
-127 -130 0
-128 -129 0
-128 -130 0
-129 -130 0
-131 -132 0
-131 -133 0
-131 -134 0
-131 -135 0
-132 -133 0
-132 -134 0
-132 -135 0
-133 -134 0
-133 -135 0
-134 -135 0
-136 -137 0
-136 -138 0
-136 -139 0
-136 -140 0
-137 -138 0
-137 -139 0
-137 -140 0
-138 -139 0
-138 -140 0
-139 -140 0
-141 -142 0
-141 -143 0
-141 -144 0
-141 -145 0
-142 -143 0
-142 -144 0
-142 -145 0
-143 -144 0
-143 -145 0
-144 -145 0
-146 -147 0
-146 -148 0
-146 -149 0
-146 -150 0
-147 -148 0
-147 -149 0
-147 -150 0
-148 -149 0
-148 -150 0
-149 -150 0
-1 -9 0
-1 -8 0
-3 -8 0
-1 -7 0
-2 -6 0
-3 -7 0
-3 -10 0
-5 -10 0
-3 -9 0
-2 -8 0
-3 -6 0
-4 -7 0
-2 -10 0
-5 -8 0
-4 -9 0
-5 -6 0
-2 -7 0
-1 -6 0
-5 -7 0
-4 -6 0
-2 -9 0
-4 -8 0
-2 -19 0
-5 -17 0
-3 -18 0
-5 -20 0
-2 -18 0
-4 -19 0
-1 -18 0
-5 -19 0
-1 -19 0
-4 -18 0
-2 -17 0
-3 -20 0
-4 -16 0
-2 -16 0
-3 -16 0
-1 -16 0
-1 -20 0
-2 -20 0
-5 -16 0
-4 -20 0
-3 -19 0
-1 -17 0
-4 -43 0
-5 -45 0
-5 -42 0
-4 -42 0
-5 -44 0
-1 -42 0
-4 -41 0
-4 -44 0
-3 -45 0
-3 -41 0
-2 -45 0
-3 -44 0
-2 -44 0
-4 -45 0
-3 -43 0
-2 -43 0
-1 -45 0
-2 -42 0
-1 -43 0
-5 -41 0
-5 -43 0
-2 -41 0
-3 -72 0
-5 -74 0
-4 -74 0
-1 -74 0
-2 -74 0
-1 -75 0
-2 -73 0
-2 -71 0
-1 -73 0
-1 -71 0
-5 -72 0
-3 -71 0
-4 -71 0
-5 -75 0
-5 -71 0
-4 -72 0
-4 -73 0
-5 -73 0
-2 -75 0
-3 -75 0
-2 -72 0
-3 -74 0
-5 -82 0
-2 -84 0
-2 -82 0
-2 -81 0
-5 -81 0
-2 -83 0
-5 -84 0
-1 -82 0
-4 -83 0
-4 -81 0
-1 -81 0
-1 -84 0
-2 -85 0
-3 -84 0
-3 -85 0
-4 -84 0
-5 -85 0
-3 -81 0
-3 -83 0
-4 -85 0
-5 -83 0
-4 -82 0
-1 -147 0
-2 -148 0
-1 -146 0
-4 -149 0
-4 -146 0
-3 -146 0
-3 -149 0
-3 -150 0
-5 -146 0
-2 -147 0
-1 -149 0
-4 -148 0
-5 -148 0
-4 -150 0
-5 -147 0
-2 -146 0
-1 -150 0
-2 -149 0
-3 -147 0
-5 -150 0
-5 -149 0
-3 -148 0
-9 -12 0
-10 -11 0
-6 -13 0
-9 -13 0
-7 -14 0
-9 -15 0
-10 -12 0
-7 -11 0
-8 -11 0
-9 -11 0
-8 -13 0
-10 -14 0
-6 -12 0
-7 -12 0
-8 -15 0
-6 -11 0
-8 -14 0
-8 -12 0
-10 -15 0
-6 -15 0
-10 -13 0
-7 -15 0
-9 -48 0
-9 -46 0
-6 -48 0
-7 -50 0
-8 -48 0
-6 -49 0
-10 -47 0
-7 -49 0
-6 -47 0
-6 -50 0
-7 -48 0
-10 -48 0
-8 -47 0
-6 -46 0
-10 -50 0
-9 -50 0
-8 -49 0
-9 -49 0
-8 -46 0
-8 -50 0
-9 -47 0
-10 -49 0
-9 -58 0
-10 -57 0
-10 -56 0
-7 -57 0
-9 -60 0
-10 -59 0
-8 -58 0
-7 -60 0
-9 -56 0
-8 -59 0
-7 -56 0
-9 -57 0
-6 -56 0
-10 -60 0
-7 -59 0
-8 -57 0
-6 -60 0
-8 -60 0
-7 -58 0
-6 -58 0
-9 -59 0
-8 -56 0
-9 -70 0
-10 -66 0
-9 -67 0
-7 -67 0
-9 -69 0
-8 -70 0
-7 -70 0
-7 -69 0
-9 -68 0
-8 -67 0
-8 -66 0
-10 -69 0
-10 -70 0
-6 -68 0
-6 -67 0
-10 -67 0
-8 -68 0
-7 -68 0
-8 -69 0
-6 -70 0
-9 -66 0
-10 -68 0
-6 -100 0
-9 -99 0
-10 -100 0
-7 -98 0
-9 -100 0
-8 -100 0
-7 -96 0
-7 -97 0
-10 -96 0
-9 -97 0
-6 -98 0
-8 -99 0
-8 -96 0
-8 -97 0
-10 -98 0
-9 -98 0
-8 -98 0
-9 -96 0
-10 -97 0
-6 -97 0
-7 -100 0
-6 -99 0
-9 -105 0
-7 -103 0
-8 -104 0
-10 -105 0
-8 -105 0
-8 -101 0
-10 -103 0
-6 -102 0
-9 -102 0
-6 -103 0
-10 -104 0
-6 -101 0
-7 -102 0
-6 -105 0
-10 -102 0
-7 -105 0
-7 -101 0
-9 -103 0
-6 -104 0
-10 -101 0
-9 -104 0
-8 -102 0
-7 -113 0
-10 -114 0
-9 -111 0
-9 -113 0
-10 -111 0
-7 -114 0
-10 -113 0
-8 -113 0
-9 -112 0
-8 -111 0
-7 -111 0
-9 -114 0
-6 -114 0
-7 -112 0
-6 -111 0
-6 -115 0
-6 -112 0
-8 -115 0
-6 -113 0
-10 -115 0
-8 -114 0
-7 -115 0
-9 -117 0
-8 -119 0
-9 -116 0
-9 -119 0
-10 -118 0
-7 -119 0
-6 -119 0
-9 -118 0
-8 -118 0
-7 -117 0
-9 -120 0
-7 -116 0
-8 -120 0
-7 -118 0
-10 -119 0
-7 -120 0
-6 -116 0
-10 -117 0
-8 -117 0
-8 -116 0
-6 -117 0
-6 -118 0
-7 -140 0
-10 -137 0
-6 -136 0
-6 -138 0
-7 -138 0
-9 -136 0
-8 -136 0
-6 -140 0
-6 -139 0
-10 -140 0
-10 -138 0
-7 -137 0
-9 -140 0
-9 -138 0
-10 -136 0
-9 -137 0
-6 -137 0
-8 -138 0
-8 -139 0
-8 -140 0
-7 -136 0
-8 -137 0
-9 -149 0
-10 -146 0
-10 -147 0
-7 -148 0
-10 -148 0
-9 -148 0
-8 -149 0
-6 -149 0
-7 -150 0
-7 -149 0
-8 -148 0
-9 -146 0
-9 -147 0
-6 -148 0
-6 -146 0
-10 -150 0
-6 -147 0
-10 -149 0
-6 -150 0
-8 -147 0
-8 -150 0
-7 -147 0
-11 -17 0
-13 -17 0
-13 -16 0
-13 -19 0
-15 -17 0
-14 -19 0
-11 -18 0
-11 -20 0
-13 -20 0
-12 -16 0
-13 -18 0
-11 -19 0
-11 -16 0
-12 -20 0
-15 -20 0
-14 -20 0
-14 -18 0
-12 -17 0
-14 -17 0
-15 -18 0
-15 -19 0
-12 -19 0
-13 -30 0
-15 -26 0
-11 -27 0
-14 -30 0
-15 -27 0
-15 -28 0
-13 -29 0
-14 -28 0
-14 -26 0
-14 -29 0
-11 -28 0
-11 -30 0
-15 -29 0
-11 -29 0
-13 -27 0
-15 -30 0
-14 -27 0
-13 -26 0
-11 -26 0
-12 -26 0
-13 -28 0
-12 -30 0
-11 -39 0
-14 -39 0
-12 -38 0
-12 -40 0
-11 -38 0
-14 -37 0
-13 -40 0
-11 -37 0
-13 -36 0
-13 -37 0
-15 -38 0
-12 -37 0
-11 -36 0
-15 -40 0
-14 -36 0
-15 -39 0
-15 -36 0
-12 -39 0
-14 -40 0
-13 -38 0
-15 -37 0
-13 -39 0
-12 -49 0
-14 -47 0
-13 -50 0
-13 -46 0
-14 -49 0
-15 -50 0
-13 -47 0
-15 -48 0
-11 -49 0
-12 -46 0
-15 -46 0
-11 -48 0
-12 -50 0
-15 -49 0
-13 -48 0
-12 -47 0
-14 -50 0
-12 -48 0
-11 -46 0
-14 -46 0
-15 -47 0
-11 -47 0
-12 -80 0
-12 -79 0
-11 -77 0
-13 -78 0
-14 -78 0
-14 -80 0
-12 -78 0
-11 -76 0
-13 -76 0
-15 -78 0
-15 -79 0
-14 -77 0
-11 -78 0
-13 -79 0
-13 -77 0
-15 -77 0
-11 -79 0
-14 -79 0
-14 -76 0
-15 -80 0
-15 -76 0
-12 -76 0
-14 -85 0
-14 -81 0
-13 -81 0
-11 -82 0
-11 -81 0
-15 -85 0
-12 -81 0
-15 -84 0
-14 -84 0
-13 -85 0
-15 -82 0
-14 -83 0
-13 -82 0
-11 -84 0
-12 -84 0
-11 -85 0
-11 -83 0
-15 -83 0
-13 -84 0
-12 -85 0
-12 -82 0
-15 -81 0
-14 -86 0
-13 -86 0
-15 -90 0
-12 -90 0
-14 -89 0
-11 -86 0
-12 -88 0
-15 -86 0
-15 -87 0
-12 -89 0
-11 -89 0
-11 -88 0
-13 -89 0
-13 -87 0
-12 -87 0
-15 -88 0
-13 -90 0
-11 -87 0
-13 -88 0
-14 -88 0
-15 -89 0
-12 -86 0
-13 -101 0
-15 -102 0
-14 -105 0
-11 -102 0
-13 -104 0
-13 -102 0
-11 -101 0
-15 -105 0
-13 -103 0
-11 -103 0
-14 -101 0
-14 -104 0
-14 -103 0
-13 -105 0
-12 -103 0
-12 -101 0
-15 -104 0
-12 -102 0
-12 -105 0
-15 -103 0
-12 -104 0
-11 -105 0
-13 -114 0
-14 -112 0
-15 -114 0
-15 -112 0
-12 -112 0
-15 -111 0
-12 -115 0
-15 -115 0
-13 -113 0
-12 -111 0
-12 -114 0
-11 -112 0
-11 -113 0
-14 -115 0
-11 -115 0
-15 -113 0
-14 -114 0
-13 -112 0
-11 -111 0
-14 -113 0
-12 -113 0
-13 -111 0
-13 -127 0
-11 -128 0
-15 -127 0
-14 -128 0
-14 -127 0
-14 -129 0
-12 -126 0
-11 -127 0
-11 -126 0
-13 -126 0
-14 -130 0
-13 -130 0
-15 -128 0
-12 -129 0
-12 -128 0
-12 -130 0
-12 -127 0
-11 -130 0
-14 -126 0
-11 -129 0
-15 -129 0
-13 -129 0
-14 -142 0
-15 -143 0
-15 -144 0
-12 -142 0
-14 -144 0
-13 -145 0
-12 -144 0
-11 -144 0
-12 -141 0
-15 -142 0
-11 -142 0
-11 -141 0
-13 -144 0
-12 -143 0
-11 -145 0
-15 -141 0
-13 -142 0
-14 -145 0
-14 -141 0
-13 -143 0
-14 -143 0
-13 -141 0
-20 -26 0
-16 -30 0
-17 -30 0
-19 -29 0
-19 -30 0
-17 -26 0
-19 -27 0
-17 -27 0
-20 -30 0
-20 -28 0
-18 -28 0
-18 -26 0
-17 -29 0
-16 -27 0
-20 -27 0
-20 -29 0
-16 -26 0
-19 -26 0
-18 -30 0
-16 -29 0
-17 -28 0
-16 -28 0
-17 -47 0
-19 -50 0
-20 -47 0
-18 -48 0
-16 -48 0
-20 -46 0
-16 -47 0
-18 -50 0
-17 -50 0
-19 -48 0
-19 -47 0
-16 -49 0
-16 -50 0
-17 -49 0
-19 -46 0
-20 -49 0
-20 -48 0
-18 -46 0
-17 -46 0
-17 -48 0
-18 -49 0
-16 -46 0
-17 -56 0
-17 -60 0
-19 -57 0
-20 -58 0
-20 -60 0
-16 -60 0
-18 -60 0
-16 -59 0
-17 -58 0
-16 -58 0
-17 -57 0
-18 -57 0
-18 -56 0
-20 -57 0
-17 -59 0
-16 -57 0
-19 -60 0
-18 -58 0
-19 -58 0
-19 -56 0
-20 -56 0
-18 -59 0
-20 -71 0
-18 -75 0
-17 -73 0
-17 -71 0
-16 -73 0
-18 -74 0
-19 -75 0
-16 -75 0
-20 -74 0
-20 -73 0
-16 -72 0
-20 -72 0
-19 -71 0
-19 -72 0
-16 -71 0
-18 -71 0
-18 -72 0
-17 -74 0
-17 -72 0
-19 -73 0
-19 -74 0
-20 -75 0
-19 -80 0
-18 -80 0
-20 -79 0
-17 -78 0
-17 -77 0
-18 -77 0
-16 -76 0
-19 -78 0
-20 -76 0
-16 -78 0
-18 -76 0
-18 -78 0
-18 -79 0
-17 -79 0
-17 -80 0
-20 -80 0
-19 -77 0
-19 -79 0
-17 -76 0
-20 -77 0
-19 -76 0
-20 -78 0
-17 -85 0
-20 -83 0
-19 -83 0
-20 -82 0
-19 -81 0
-18 -82 0
-17 -84 0
-16 -81 0
-20 -84 0
-17 -81 0
-19 -84 0
-16 -83 0
-16 -85 0
-18 -84 0
-20 -85 0
-19 -82 0
-16 -84 0
-17 -82 0
-18 -85 0
-16 -82 0
-19 -85 0
-18 -81 0
-19 -119 0
-20 -117 0
-18 -116 0
-18 -119 0
-20 -119 0
-18 -117 0
-17 -116 0
-20 -116 0
-17 -119 0
-16 -117 0
-16 -120 0
-18 -118 0
-17 -118 0
-19 -118 0
-16 -118 0
-18 -120 0
-16 -116 0
-19 -120 0
-17 -120 0
-17 -117 0
-20 -118 0
-20 -120 0
-17 -142 0
-18 -141 0
-16 -142 0
-18 -142 0
-19 -143 0
-19 -145 0
-16 -143 0
-16 -144 0
-16 -141 0
-20 -141 0
-18 -144 0
-17 -141 0
-17 -145 0
-19 -141 0
-20 -143 0
-18 -143 0
-20 -144 0
-18 -145 0
-20 -145 0
-20 -142 0
-19 -142 0
-19 -144 0
-19 -149 0
-17 -147 0
-16 -150 0
-17 -148 0
-17 -149 0
-20 -149 0
-20 -146 0
-16 -148 0
-18 -149 0
-20 -147 0
-19 -147 0
-19 -148 0
-18 -147 0
-16 -147 0
-19 -146 0
-17 -150 0
-16 -146 0
-20 -148 0
-19 -150 0
-17 -146 0
-16 -149 0
-20 -150 0
-25 -66 0
-25 -70 0
-21 -67 0
-25 -68 0
-24 -69 0
-23 -67 0
-23 -69 0
-24 -66 0
-23 -66 0
-25 -67 0
-24 -68 0
-24 -70 0
-22 -69 0
-22 -67 0
-21 -70 0
-23 -68 0
-21 -68 0
-24 -67 0
-23 -70 0
-21 -66 0
-21 -69 0
-22 -68 0
-21 -82 0
-22 -85 0
-24 -82 0
-22 -82 0
-21 -84 0
-25 -83 0
-22 -84 0
-23 -85 0
-25 -85 0
-22 -81 0
-23 -81 0
-23 -83 0
-24 -84 0
-24 -81 0
-21 -85 0
-25 -81 0
-21 -83 0
-24 -85 0
-22 -83 0
-24 -83 0
-23 -84 0
-21 -81 0
-24 -89 0
-21 -86 0
-25 -86 0
-24 -88 0
-23 -89 0
-24 -90 0
-24 -86 0
-22 -88 0
-22 -87 0
-23 -88 0
-25 -87 0
-21 -89 0
-22 -90 0
-22 -86 0
-24 -87 0
-25 -88 0
-23 -90 0
-22 -89 0
-21 -90 0
-25 -90 0
-23 -87 0
-21 -88 0
-21 -96 0
-21 -98 0
-24 -97 0
-21 -100 0
-23 -99 0
-21 -99 0
-24 -96 0
-22 -97 0
-23 -98 0
-25 -98 0
-22 -98 0
-24 -100 0
-23 -97 0
-25 -96 0
-23 -96 0
-21 -97 0
-22 -96 0
-23 -100 0
-25 -97 0
-25 -99 0
-25 -100 0
-24 -98 0
-23 -105 0
-23 -102 0
-23 -101 0
-22 -101 0
-21 -104 0
-22 -102 0
-25 -103 0
-25 -104 0
-22 -104 0
-24 -105 0
-23 -103 0
-24 -101 0
-22 -105 0
-24 -102 0
-22 -103 0
-21 -101 0
-24 -103 0
-21 -102 0
-25 -105 0
-25 -102 0
-21 -103 0
-21 -105 0
-23 -125 0
-23 -124 0
-25 -122 0
-22 -123 0
-25 -121 0
-24 -124 0
-21 -122 0
-23 -123 0
-21 -121 0
-21 -123 0
-21 -124 0
-24 -125 0
-25 -125 0
-22 -124 0
-24 -123 0
-23 -121 0
-22 -125 0
-23 -122 0
-21 -125 0
-25 -123 0
-24 -122 0
-22 -121 0
-24 -135 0
-24 -131 0
-22 -131 0
-21 -131 0
-25 -134 0
-25 -131 0
-24 -133 0
-25 -133 0
-22 -134 0
-23 -132 0
-23 -134 0
-24 -132 0
-25 -135 0
-23 -135 0
-23 -131 0
-23 -133 0
-21 -135 0
-24 -134 0
-25 -132 0
-22 -133 0
-21 -132 0
-21 -133 0
-22 -141 0
-25 -142 0
-21 -145 0
-25 -143 0
-24 -142 0
-25 -144 0
-22 -142 0
-21 -144 0
-24 -143 0
-21 -143 0
-23 -141 0
-21 -141 0
-24 -144 0
-24 -145 0
-23 -144 0
-23 -145 0
-23 -142 0
-23 -143 0
-22 -145 0
-22 -143 0
-25 -141 0
-21 -142 0
-29 -54 0
-27 -54 0
-29 -51 0
-26 -53 0
-30 -52 0
-30 -55 0
-29 -55 0
-27 -55 0
-27 -52 0
-30 -53 0
-28 -51 0
-26 -52 0
-27 -51 0
-26 -51 0
-29 -53 0
-30 -51 0
-28 -54 0
-29 -52 0
-26 -54 0
-26 -55 0
-28 -55 0
-28 -52 0
-29 -60 0
-27 -58 0
-29 -59 0
-28 -59 0
-29 -57 0
-30 -60 0
-30 -57 0
-28 -57 0
-26 -58 0
-26 -57 0
-26 -60 0
-27 -56 0
-30 -59 0
-28 -56 0
-28 -60 0
-27 -57 0
-26 -59 0
-29 -56 0
-26 -56 0
-30 -58 0
-27 -59 0
-28 -58 0
-27 -87 0
-26 -88 0
-30 -90 0
-27 -89 0
-29 -87 0
-29 -90 0
-26 -89 0
-27 -86 0
-26 -87 0
-27 -88 0
-29 -89 0
-28 -87 0
-28 -89 0
-27 -90 0
-30 -88 0
-28 -90 0
-26 -86 0
-30 -89 0
-28 -86 0
-26 -90 0
-28 -88 0
-29 -86 0
-27 -99 0
-29 -96 0
-30 -100 0
-30 -97 0
-28 -97 0
-26 -96 0
-27 -96 0
-26 -99 0
-30 -96 0
-30 -98 0
-29 -99 0
-26 -98 0
-28 -98 0
-26 -97 0
-27 -97 0
-29 -100 0
-28 -96 0
-26 -100 0
-29 -98 0
-29 -97 0
-28 -100 0
-30 -99 0
-28 -116 0
-30 -119 0
-27 -118 0
-30 -116 0
-26 -118 0
-28 -119 0
-29 -116 0
-26 -117 0
-27 -120 0
-30 -120 0
-28 -120 0
-30 -117 0
-28 -118 0
-28 -117 0
-27 -117 0
-26 -120 0
-26 -119 0
-29 -119 0
-30 -118 0
-29 -120 0
-27 -116 0
-29 -117 0
-27 -142 0
-26 -141 0
-29 -142 0
-30 -143 0
-29 -144 0
-29 -145 0
-26 -143 0
-26 -142 0
-28 -145 0
-27 -145 0
-30 -141 0
-28 -142 0
-26 -144 0
-27 -141 0
-28 -143 0
-27 -144 0
-30 -142 0
-27 -143 0
-26 -145 0
-30 -145 0
-29 -143 0
-30 -144 0
-35 -67 0
-33 -66 0
-33 -70 0
-35 -69 0
-33 -68 0
-34 -67 0
-31 -70 0
-35 -70 0
-33 -67 0
-31 -69 0
-34 -66 0
-33 -69 0
-32 -68 0
-32 -70 0
-32 -66 0
-35 -68 0
-31 -66 0
-35 -66 0
-31 -67 0
-32 -67 0
-34 -70 0
-34 -68 0
-31 -122 0
-35 -125 0
-31 -123 0
-32 -124 0
-33 -123 0
-31 -125 0
-34 -124 0
-35 -124 0
-34 -125 0
-31 -121 0
-35 -123 0
-33 -125 0
-32 -123 0
-34 -123 0
-34 -122 0
-33 -121 0
-32 -121 0
-35 -121 0
-32 -122 0
-32 -125 0
-35 -122 0
-33 -122 0
-35 -143 0
-34 -141 0
-32 -142 0
-32 -145 0
-34 -143 0
-34 -145 0
-33 -144 0
-33 -141 0
-32 -143 0
-31 -145 0
-33 -145 0
-35 -141 0
-33 -142 0
-31 -144 0
-35 -144 0
-31 -142 0
-31 -141 0
-32 -144 0
-32 -141 0
-34 -142 0
-33 -143 0
-35 -142 0
-32 -147 0
-34 -148 0
-31 -147 0
-34 -150 0
-33 -146 0
-35 -146 0
-32 -150 0
-34 -149 0
-33 -147 0
-31 -149 0
-33 -150 0
-34 -147 0
-32 -148 0
-33 -148 0
-31 -148 0
-35 -150 0
-32 -149 0
-31 -150 0
-35 -149 0
-33 -149 0
-32 -146 0
-34 -146 0
-36 -43 0
-36 -42 0
-37 -41 0
-39 -44 0
-38 -43 0
-40 -44 0
-36 -45 0
-40 -45 0
-38 -44 0
-39 -43 0
-40 -43 0
-40 -41 0
-38 -42 0
-39 -41 0
-39 -45 0
-39 -42 0
-37 -43 0
-37 -44 0
-37 -45 0
-38 -41 0
-36 -44 0
-37 -42 0
-40 -90 0
-40 -86 0
-36 -87 0
-38 -88 0
-40 -87 0
-38 -87 0
-37 -88 0
-36 -90 0
-36 -88 0
-37 -89 0
-38 -86 0
-36 -89 0
-39 -88 0
-39 -87 0
-38 -90 0
-39 -89 0
-39 -86 0
-37 -87 0
-37 -90 0
-38 -89 0
-36 -86 0
-40 -88 0
-40 -94 0
-39 -91 0
-38 -94 0
-38 -93 0
-39 -95 0
-36 -93 0
-38 -92 0
-36 -91 0
-37 -92 0
-36 -92 0
-37 -94 0
-38 -95 0
-37 -93 0
-37 -91 0
-39 -92 0
-36 -95 0
-38 -91 0
-36 -94 0
-40 -92 0
-39 -94 0
-40 -93 0
-40 -91 0
-37 -100 0
-36 -96 0
-37 -96 0
-39 -100 0
-40 -98 0
-36 -98 0
-37 -98 0
-38 -98 0
-38 -100 0
-39 -98 0
-38 -96 0
-40 -97 0
-38 -97 0
-38 -99 0
-40 -99 0
-36 -99 0
-40 -100 0
-37 -97 0
-39 -97 0
-39 -99 0
-37 -99 0
-39 -96 0
-38 -111 0
-38 -114 0
-40 -114 0
-36 -113 0
-37 -112 0
-39 -113 0
-40 -113 0
-38 -115 0
-40 -115 0
-37 -115 0
-36 -112 0
-39 -114 0
-39 -111 0
-40 -111 0
-37 -114 0
-36 -115 0
-40 -112 0
-36 -114 0
-37 -111 0
-38 -112 0
-38 -113 0
-39 -115 0
-36 -116 0
-39 -119 0
-37 -116 0
-38 -118 0
-38 -119 0
-36 -119 0
-36 -120 0
-40 -116 0
-39 -118 0
-36 -117 0
-38 -117 0
-39 -117 0
-37 -120 0
-38 -116 0
-40 -119 0
-37 -118 0
-37 -117 0
-37 -119 0
-40 -117 0
-38 -120 0
-36 -118 0
-40 -120 0
-39 -122 0
-37 -124 0
-38 -124 0
-37 -122 0
-40 -123 0
-36 -122 0
-38 -122 0
-39 -123 0
-37 -121 0
-40 -121 0
-39 -125 0
-36 -124 0
-39 -121 0
-40 -125 0
-40 -124 0
-36 -121 0
-38 -121 0
-39 -124 0
-38 -125 0
-40 -122 0
-38 -123 0
-36 -123 0
-36 -136 0
-37 -137 0
-39 -137 0
-40 -137 0
-40 -136 0
-40 -139 0
-38 -138 0
-38 -140 0
-38 -139 0
-39 -140 0
-39 -138 0
-40 -140 0
-37 -139 0
-36 -139 0
-38 -137 0
-38 -136 0
-40 -138 0
-36 -138 0
-39 -136 0
-37 -140 0
-39 -139 0
-37 -136 0
-45 -59 0
-41 -60 0
-43 -56 0
-41 -57 0
-42 -58 0
-44 -59 0
-41 -56 0
-44 -60 0
-42 -60 0
-45 -58 0
-41 -58 0
-42 -56 0
-44 -57 0
-42 -57 0
-41 -59 0
-43 -59 0
-45 -60 0
-43 -57 0
-44 -58 0
-42 -59 0
-45 -57 0
-44 -56 0
-44 -79 0
-42 -76 0
-43 -80 0
-43 -77 0
-44 -76 0
-45 -77 0
-42 -77 0
-41 -79 0
-41 -77 0
-44 -78 0
-45 -78 0
-45 -76 0
-43 -78 0
-42 -78 0
-42 -79 0
-44 -80 0
-43 -79 0
-41 -80 0
-45 -80 0
-42 -80 0
-45 -79 0
-43 -76 0
-44 -110 0
-43 -107 0
-45 -108 0
-45 -109 0
-45 -110 0
-42 -106 0
-43 -109 0
-45 -106 0
-44 -106 0
-42 -109 0
-44 -109 0
-42 -110 0
-45 -107 0
-41 -110 0
-41 -108 0
-42 -108 0
-41 -107 0
-43 -106 0
-44 -108 0
-44 -107 0
-41 -109 0
-41 -106 0
-46 -62 0
-47 -63 0
-49 -63 0
-48 -62 0
-46 -63 0
-49 -62 0
-46 -65 0
-50 -64 0
-47 -61 0
-47 -64 0
-49 -65 0
-48 -61 0
-48 -63 0
-46 -64 0
-49 -64 0
-50 -65 0
-48 -64 0
-50 -63 0
-47 -65 0
-47 -62 0
-50 -62 0
-49 -61 0
-50 -70 0
-47 -69 0
-48 -69 0
-49 -69 0
-48 -68 0
-49 -68 0
-48 -66 0
-46 -69 0
-48 -67 0
-49 -70 0
-46 -67 0
-50 -66 0
-49 -67 0
-50 -67 0
-48 -70 0
-46 -70 0
-47 -67 0
-46 -66 0
-47 -68 0
-49 -66 0
-50 -68 0
-47 -66 0
-47 -85 0
-46 -83 0
-46 -82 0
-47 -84 0
-49 -84 0
-48 -82 0
-46 -84 0
-49 -82 0
-48 -84 0
-50 -82 0
-50 -84 0
-47 -81 0
-46 -81 0
-46 -85 0
-48 -83 0
-50 -85 0
-50 -83 0
-48 -85 0
-50 -81 0
-49 -85 0
-49 -83 0
-49 -81 0
-49 -96 0
-49 -98 0
-50 -98 0
-48 -99 0
-47 -98 0
-48 -100 0
-50 -100 0
-49 -99 0
-50 -97 0
-47 -99 0
-47 -97 0
-50 -96 0
-46 -96 0
-47 -100 0
-46 -98 0
-46 -100 0
-50 -99 0
-49 -97 0
-46 -99 0
-46 -97 0
-48 -96 0
-48 -97 0
-47 -115 0
-46 -111 0
-46 -114 0
-46 -115 0
-49 -115 0
-48 -113 0
-46 -112 0
-46 -113 0
-47 -111 0
-50 -113 0
-47 -112 0
-49 -114 0
-49 -111 0
-48 -114 0
-48 -111 0
-48 -112 0
-48 -115 0
-49 -113 0
-47 -113 0
-50 -114 0
-50 -112 0
-49 -112 0
-49 -117 0
-48 -118 0
-50 -117 0
-49 -116 0
-47 -117 0
-50 -120 0
-50 -116 0
-48 -116 0
-48 -117 0
-49 -118 0
-47 -120 0
-47 -119 0
-47 -116 0
-49 -119 0
-47 -118 0
-48 -120 0
-46 -116 0
-48 -119 0
-46 -118 0
-50 -118 0
-46 -117 0
-46 -120 0
-49 -125 0
-49 -122 0
-50 -124 0
-50 -121 0
-46 -124 0
-50 -125 0
-48 -121 0
-46 -121 0
-48 -125 0
-46 -125 0
-47 -121 0
-49 -124 0
-46 -122 0
-49 -121 0
-50 -122 0
-47 -123 0
-46 -123 0
-47 -125 0
-49 -123 0
-47 -122 0
-50 -123 0
-48 -122 0
-50 -139 0
-46 -139 0
-49 -138 0
-49 -139 0
-47 -139 0
-49 -136 0
-50 -140 0
-49 -140 0
-46 -137 0
-47 -140 0
-50 -136 0
-49 -137 0
-47 -137 0
-48 -139 0
-48 -136 0
-46 -136 0
-46 -140 0
-48 -138 0
-50 -137 0
-50 -138 0
-47 -138 0
-47 -136 0
-46 -146 0
-50 -148 0
-46 -147 0
-49 -148 0
-49 -149 0
-49 -147 0
-50 -147 0
-50 -146 0
-50 -149 0
-47 -147 0
-49 -150 0
-48 -149 0
-47 -149 0
-48 -146 0
-50 -150 0
-49 -146 0
-47 -148 0
-46 -148 0
-47 -150 0
-47 -146 0
-48 -148 0
-46 -150 0
-55 -63 0
-51 -64 0
-52 -65 0
-54 -62 0
-52 -63 0
-55 -61 0
-52 -64 0
-51 -61 0
-55 -65 0
-51 -63 0
-54 -61 0
-55 -62 0
-54 -63 0
-54 -64 0
-53 -63 0
-53 -64 0
-55 -64 0
-52 -61 0
-53 -65 0
-54 -65 0
-53 -61 0
-53 -62 0
-54 -75 0
-52 -73 0
-52 -74 0
-55 -75 0
-51 -72 0
-53 -74 0
-54 -71 0
-54 -73 0
-52 -72 0
-53 -73 0
-55 -73 0
-53 -71 0
-54 -72 0
-51 -74 0
-53 -72 0
-52 -71 0
-51 -75 0
-54 -74 0
-55 -72 0
-53 -75 0
-51 -73 0
-55 -71 0
-52 -78 0
-51 -76 0
-55 -79 0
-55 -77 0
-54 -76 0
-53 -78 0
-54 -80 0
-52 -80 0
-51 -77 0
-55 -78 0
-55 -76 0
-53 -77 0
-51 -80 0
-53 -76 0
-52 -76 0
-54 -79 0
-53 -79 0
-54 -77 0
-51 -78 0
-52 -79 0
-54 -78 0
-52 -77 0
-51 -100 0
-55 -96 0
-51 -99 0
-52 -97 0
-55 -98 0
-51 -96 0
-52 -100 0
-53 -99 0
-51 -97 0
-53 -97 0
-55 -97 0
-54 -97 0
-54 -96 0
-52 -99 0
-54 -100 0
-51 -98 0
-53 -98 0
-55 -100 0
-53 -100 0
-52 -96 0
-54 -98 0
-52 -98 0
-52 -130 0
-53 -128 0
-54 -129 0
-51 -126 0
-52 -126 0
-51 -128 0
-54 -127 0
-52 -128 0
-53 -126 0
-54 -128 0
-55 -130 0
-52 -129 0
-52 -127 0
-55 -126 0
-54 -130 0
-51 -129 0
-55 -127 0
-53 -127 0
-51 -127 0
-53 -130 0
-55 -129 0
-55 -128 0
-54 -138 0
-53 -137 0
-55 -138 0
-53 -138 0
-53 -139 0
-53 -140 0
-55 -140 0
-52 -138 0
-54 -137 0
-52 -139 0
-51 -138 0
-54 -140 0
-52 -140 0
-54 -136 0
-54 -139 0
-51 -137 0
-51 -136 0
-55 -136 0
-55 -139 0
-51 -140 0
-52 -136 0
-53 -136 0
-56 -94 0
-59 -93 0
-58 -94 0
-58 -93 0
-59 -94 0
-57 -95 0
-57 -94 0
-60 -95 0
-57 -92 0
-58 -91 0
-58 -95 0
-56 -95 0
-60 -93 0
-56 -91 0
-59 -92 0
-57 -91 0
-58 -92 0
-60 -94 0
-59 -95 0
-60 -92 0
-60 -91 0
-59 -91 0
-59 -97 0
-59 -98 0
-58 -96 0
-56 -99 0
-56 -96 0
-57 -97 0
-60 -98 0
-58 -100 0
-60 -99 0
-58 -98 0
-60 -97 0
-58 -97 0
-58 -99 0
-56 -100 0
-57 -99 0
-57 -96 0
-60 -100 0
-56 -97 0
-59 -96 0
-56 -98 0
-57 -98 0
-60 -96 0
-59 -105 0
-60 -103 0
-56 -104 0
-59 -101 0
-57 -103 0
-57 -101 0
-58 -103 0
-57 -104 0
-56 -105 0
-60 -102 0
-60 -104 0
-56 -102 0
-58 -105 0
-56 -103 0
-59 -103 0
-58 -104 0
-58 -101 0
-59 -104 0
-60 -101 0
-56 -101 0
-57 -105 0
-57 -102 0
-60 -109 0
-57 -108 0
-57 -106 0
-60 -108 0
-57 -107 0
-56 -107 0
-56 -109 0
-58 -110 0
-58 -106 0
-56 -108 0
-56 -106 0
-58 -109 0
-60 -110 0
-59 -110 0
-59 -106 0
-60 -106 0
-60 -107 0
-57 -110 0
-58 -108 0
-59 -109 0
-59 -108 0
-56 -110 0
-63 -97 0
-63 -99 0
-63 -98 0
-62 -100 0
-64 -99 0
-64 -97 0
-65 -99 0
-65 -98 0
-62 -97 0
-62 -98 0
-61 -96 0
-62 -99 0
-62 -96 0
-61 -98 0
-63 -100 0
-61 -99 0
-63 -96 0
-65 -100 0
-61 -100 0
-64 -96 0
-64 -100 0
-65 -96 0
-61 -108 0
-62 -108 0
-63 -109 0
-61 -109 0
-65 -107 0
-65 -108 0
-64 -109 0
-63 -110 0
-63 -108 0
-64 -107 0
-64 -106 0
-62 -110 0
-63 -106 0
-64 -108 0
-63 -107 0
-62 -107 0
-64 -110 0
-62 -106 0
-61 -110 0
-62 -109 0
-61 -107 0
-65 -109 0
-63 -125 0
-65 -122 0
-63 -122 0
-64 -124 0
-65 -124 0
-63 -124 0
-64 -121 0
-62 -124 0
-61 -125 0
-62 -123 0
-65 -123 0
-65 -125 0
-63 -121 0
-63 -123 0
-61 -122 0
-64 -123 0
-64 -122 0
-62 -122 0
-65 -121 0
-62 -125 0
-61 -123 0
-61 -121 0
-65 -129 0
-61 -126 0
-62 -127 0
-64 -128 0
-64 -127 0
-63 -128 0
-65 -126 0
-63 -127 0
-64 -126 0
-61 -127 0
-62 -130 0
-62 -126 0
-62 -128 0
-63 -130 0
-65 -130 0
-61 -128 0
-61 -129 0
-63 -129 0
-61 -130 0
-65 -128 0
-62 -129 0
-63 -126 0
-66 -74 0
-69 -74 0
-66 -72 0
-68 -71 0
-67 -74 0
-68 -74 0
-69 -72 0
-67 -71 0
-69 -71 0
-70 -72 0
-68 -73 0
-69 -73 0
-67 -73 0
-67 -72 0
-69 -75 0
-70 -71 0
-67 -75 0
-68 -75 0
-66 -73 0
-70 -73 0
-68 -72 0
-66 -75 0
-68 -76 0
-70 -80 0
-67 -78 0
-70 -79 0
-69 -79 0
-67 -79 0
-67 -77 0
-68 -77 0
-69 -80 0
-70 -77 0
-66 -79 0
-70 -76 0
-69 -77 0
-66 -80 0
-70 -78 0
-69 -76 0
-68 -79 0
-66 -76 0
-67 -76 0
-69 -78 0
-66 -78 0
-68 -80 0
-70 -109 0
-67 -107 0
-70 -110 0
-66 -110 0
-69 -108 0
-68 -109 0
-68 -108 0
-70 -106 0
-70 -107 0
-69 -109 0
-69 -106 0
-67 -110 0
-69 -110 0
-68 -110 0
-66 -109 0
-66 -108 0
-70 -108 0
-68 -107 0
-67 -109 0
-66 -107 0
-67 -106 0
-67 -108 0
-69 -114 0
-70 -114 0
-67 -111 0
-66 -112 0
-68 -112 0
-70 -115 0
-66 -114 0
-69 -113 0
-70 -111 0
-69 -111 0
-69 -115 0
-68 -114 0
-67 -113 0
-66 -111 0
-67 -112 0
-68 -113 0
-70 -112 0
-67 -115 0
-69 -112 0
-66 -113 0
-67 -114 0
-70 -113 0
-69 -136 0
-68 -137 0
-66 -140 0
-68 -140 0
-67 -136 0
-67 -138 0
-68 -138 0
-70 -140 0
-70 -137 0
-70 -139 0
-66 -138 0
-70 -138 0
-67 -139 0
-69 -138 0
-68 -139 0
-70 -136 0
-67 -137 0
-66 -136 0
-69 -137 0
-68 -136 0
-66 -139 0
-67 -140 0
-66 -146 0
-67 -146 0
-69 -146 0
-67 -148 0
-68 -148 0
-69 -150 0
-66 -150 0
-66 -149 0
-67 -149 0
-68 -147 0
-69 -147 0
-70 -148 0
-69 -148 0
-68 -150 0
-66 -147 0
-70 -150 0
-70 -147 0
-67 -150 0
-68 -146 0
-70 -146 0
-69 -149 0
-70 -149 0
-73 -83 0
-74 -82 0
-73 -81 0
-75 -81 0
-71 -82 0
-75 -84 0
-73 -85 0
-75 -85 0
-74 -85 0
-74 -83 0
-74 -84 0
-72 -84 0
-73 -84 0
-74 -81 0
-72 -82 0
-71 -85 0
-71 -81 0
-72 -83 0
-75 -83 0
-75 -82 0
-73 -82 0
-71 -83 0
-72 -93 0
-71 -93 0
-73 -94 0
-74 -92 0
-74 -91 0
-71 -92 0
-71 -91 0
-73 -93 0
-75 -91 0
-74 -94 0
-73 -92 0
-74 -95 0
-72 -92 0
-75 -93 0
-73 -91 0
-71 -94 0
-72 -94 0
-71 -95 0
-73 -95 0
-75 -92 0
-75 -95 0
-72 -91 0
-75 -99 0
-75 -98 0
-72 -97 0
-74 -97 0
-72 -99 0
-72 -98 0
-73 -99 0
-73 -100 0
-71 -99 0
-72 -96 0
-73 -97 0
-74 -96 0
-71 -98 0
-75 -96 0
-73 -96 0
-75 -97 0
-75 -100 0
-72 -100 0
-74 -100 0
-71 -100 0
-73 -98 0
-71 -96 0
-71 -104 0
-72 -103 0
-73 -105 0
-71 -103 0
-71 -101 0
-73 -102 0
-71 -105 0
-75 -101 0
-72 -101 0
-75 -104 0
-73 -101 0
-72 -102 0
-74 -105 0
-75 -102 0
-74 -103 0
-74 -102 0
-71 -102 0
-74 -101 0
-73 -104 0
-72 -105 0
-73 -103 0
-72 -104 0
-74 -118 0
-73 -119 0
-72 -118 0
-75 -119 0
-72 -120 0
-73 -120 0
-72 -117 0
-71 -118 0
-75 -118 0
-71 -116 0
-75 -116 0
-75 -117 0
-73 -116 0
-74 -120 0
-71 -120 0
-73 -118 0
-71 -117 0
-73 -117 0
-74 -117 0
-74 -119 0
-72 -119 0
-74 -116 0
-73 -132 0
-74 -134 0
-72 -134 0
-72 -135 0
-75 -134 0
-72 -131 0
-75 -133 0
-71 -135 0
-73 -133 0
-71 -132 0
-75 -135 0
-74 -135 0
-73 -135 0
-73 -131 0
-75 -132 0
-71 -131 0
-74 -132 0
-71 -134 0
-72 -133 0
-74 -131 0
-72 -132 0
-74 -133 0
-71 -139 0
-72 -138 0
-75 -140 0
-71 -136 0
-71 -140 0
-71 -137 0
-74 -139 0
-73 -138 0
-72 -139 0
-72 -136 0
-73 -136 0
-75 -136 0
-74 -137 0
-74 -140 0
-73 -139 0
-74 -138 0
-71 -138 0
-75 -139 0
-75 -137 0
-73 -137 0
-75 -138 0
-72 -137 0
-72 -149 0
-72 -146 0
-74 -150 0
-73 -148 0
-75 -150 0
-73 -146 0
-71 -149 0
-71 -147 0
-72 -150 0
-73 -147 0
-75 -146 0
-74 -149 0
-75 -149 0
-75 -148 0
-74 -146 0
-71 -150 0
-71 -148 0
-74 -147 0
-71 -146 0
-72 -148 0
-72 -147 0
-73 -150 0
-79 -85 0
-79 -82 0
-78 -84 0
-77 -83 0
-79 -81 0
-80 -81 0
-78 -82 0
-76 -81 0
-77 -85 0
-80 -82 0
-76 -85 0
-78 -85 0
-79 -84 0
-79 -83 0
-78 -81 0
-77 -84 0
-80 -83 0
-76 -82 0
-76 -84 0
-78 -83 0
-77 -82 0
-80 -85 0
-79 -114 0
-78 -111 0
-79 -112 0
-77 -112 0
-80 -112 0
-80 -115 0
-80 -114 0
-80 -111 0
-77 -115 0
-80 -113 0
-77 -114 0
-76 -114 0
-77 -113 0
-76 -115 0
-78 -115 0
-79 -113 0
-77 -111 0
-78 -112 0
-78 -113 0
-76 -111 0
-79 -115 0
-79 -111 0
-76 -138 0
-78 -140 0
-78 -138 0
-78 -136 0
-80 -136 0
-78 -137 0
-79 -138 0
-79 -137 0
-80 -139 0
-77 -136 0
-77 -138 0
-76 -136 0
-78 -139 0
-77 -140 0
-76 -137 0
-79 -140 0
-80 -140 0
-76 -139 0
-80 -138 0
-80 -137 0
-76 -140 0
-79 -136 0
-84 -104 0
-83 -102 0
-85 -102 0
-84 -101 0
-82 -105 0
-85 -104 0
-84 -105 0
-85 -101 0
-84 -103 0
-82 -104 0
-84 -102 0
-81 -102 0
-83 -101 0
-83 -104 0
-82 -102 0
-82 -101 0
-81 -103 0
-82 -103 0
-81 -105 0
-85 -105 0
-81 -104 0
-85 -103 0
-82 -106 0
-83 -109 0
-81 -108 0
-84 -107 0
-85 -109 0
-83 -107 0
-82 -109 0
-81 -106 0
-83 -106 0
-85 -108 0
-82 -108 0
-84 -106 0
-84 -110 0
-85 -107 0
-84 -109 0
-82 -107 0
-83 -108 0
-81 -110 0
-83 -110 0
-85 -106 0
-82 -110 0
-81 -109 0
-81 -119 0
-85 -116 0
-85 -120 0
-82 -119 0
-82 -118 0
-85 -117 0
-84 -120 0
-81 -117 0
-83 -118 0
-83 -116 0
-85 -118 0
-81 -116 0
-84 -117 0
-84 -119 0
-82 -116 0
-83 -120 0
-84 -118 0
-82 -120 0
-81 -118 0
-82 -117 0
-83 -117 0
-83 -119 0
-84 -128 0
-83 -130 0
-85 -130 0
-84 -126 0
-83 -128 0
-85 -127 0
-82 -128 0
-84 -130 0
-83 -129 0
-81 -126 0
-82 -127 0
-81 -130 0
-82 -126 0
-85 -126 0
-82 -130 0
-81 -128 0
-83 -126 0
-81 -129 0
-84 -129 0
-83 -127 0
-85 -129 0
-81 -127 0
-85 -143 0
-82 -145 0
-83 -143 0
-82 -142 0
-85 -145 0
-84 -142 0
-84 -143 0
-81 -141 0
-84 -141 0
-82 -143 0
-84 -144 0
-81 -143 0
-85 -142 0
-83 -142 0
-85 -141 0
-83 -144 0
-84 -145 0
-85 -144 0
-81 -142 0
-82 -141 0
-83 -145 0
-83 -141 0
-89 -130 0
-87 -127 0
-86 -128 0
-88 -127 0
-88 -128 0
-90 -127 0
-86 -126 0
-89 -127 0
-87 -130 0
-90 -126 0
-86 -129 0
-90 -128 0
-90 -130 0
-86 -130 0
-86 -127 0
-88 -126 0
-87 -129 0
-88 -130 0
-89 -126 0
-88 -129 0
-87 -126 0
-89 -128 0
-88 -140 0
-87 -138 0
-88 -136 0
-86 -140 0
-86 -139 0
-90 -138 0
-90 -137 0
-87 -136 0
-87 -140 0
-86 -137 0
-89 -137 0
-86 -136 0
-89 -139 0
-90 -139 0
-89 -138 0
-88 -139 0
-86 -138 0
-90 -136 0
-90 -140 0
-89 -136 0
-87 -137 0
-89 -140 0
-89 -144 0
-90 -143 0
-89 -142 0
-86 -144 0
-88 -145 0
-90 -142 0
-90 -141 0
-86 -141 0
-86 -143 0
-86 -145 0
-90 -145 0
-87 -145 0
-87 -143 0
-88 -144 0
-87 -142 0
-88 -142 0
-89 -145 0
-89 -141 0
-89 -143 0
-88 -141 0
-90 -144 0
-86 -142 0
-92 -135 0
-95 -133 0
-93 -133 0
-94 -134 0
-92 -134 0
-95 -134 0
-92 -131 0
-93 -132 0
-91 -135 0
-91 -131 0
-95 -132 0
-94 -131 0
-93 -135 0
-93 -134 0
-91 -134 0
-92 -132 0
-95 -131 0
-92 -133 0
-91 -132 0
-95 -135 0
-94 -133 0
-93 -131 0
-96 -118 0
-100 -119 0
-99 -118 0
-98 -117 0
-97 -117 0
-99 -119 0
-98 -120 0
-97 -118 0
-98 -119 0
-96 -119 0
-97 -119 0
-100 -116 0
-99 -116 0
-98 -118 0
-99 -117 0
-96 -117 0
-97 -120 0
-96 -120 0
-96 -116 0
-99 -120 0
-100 -118 0
-100 -120 0
-102 -110 0
-104 -106 0
-102 -109 0
-101 -106 0
-102 -106 0
-102 -108 0
-104 -108 0
-104 -110 0
-103 -106 0
-104 -109 0
-105 -106 0
-103 -110 0
-102 -107 0
-101 -107 0
-103 -107 0
-103 -109 0
-105 -109 0
-101 -108 0
-101 -110 0
-105 -107 0
-105 -110 0
-103 -108 0
-102 -118 0
-102 -116 0
-103 -118 0
-101 -116 0
-104 -117 0
-103 -116 0
-104 -120 0
-105 -118 0
-101 -117 0
-101 -120 0
-104 -116 0
-101 -118 0
-104 -119 0
-101 -119 0
-102 -119 0
-105 -119 0
-105 -120 0
-105 -116 0
-102 -117 0
-103 -119 0
-102 -120 0
-103 -117 0
-103 -127 0
-102 -130 0
-102 -128 0
-101 -129 0
-105 -129 0
-101 -127 0
-102 -126 0
-104 -128 0
-102 -127 0
-103 -128 0
-105 -130 0
-105 -128 0
-104 -126 0
-102 -129 0
-103 -130 0
-105 -127 0
-101 -130 0
-103 -129 0
-101 -128 0
-101 -126 0
-104 -130 0
-104 -127 0
-105 -131 0
-102 -131 0
-105 -132 0
-104 -135 0
-104 -132 0
-103 -134 0
-101 -132 0
-103 -131 0
-101 -133 0
-102 -133 0
-104 -133 0
-103 -133 0
-103 -132 0
-105 -133 0
-101 -134 0
-102 -132 0
-101 -135 0
-101 -131 0
-102 -134 0
-104 -134 0
-104 -131 0
-102 -135 0
-102 -142 0
-105 -143 0
-103 -144 0
-101 -141 0
-104 -142 0
-104 -141 0
-103 -142 0
-105 -141 0
-102 -144 0
-105 -144 0
-101 -145 0
-104 -145 0
-103 -145 0
-103 -141 0
-104 -143 0
-102 -141 0
-102 -145 0
-101 -143 0
-102 -143 0
-105 -142 0
-104 -144 0
-101 -142 0
-102 -149 0
-102 -148 0
-101 -147 0
-101 -150 0
-103 -148 0
-102 -147 0
-105 -146 0
-103 -150 0
-105 -148 0
-103 -147 0
-103 -146 0
-103 -149 0
-104 -146 0
-105 -149 0
-105 -147 0
-102 -150 0
-104 -150 0
-102 -146 0
-104 -149 0
-104 -147 0
-104 -148 0
-101 -146 0
-108 -123 0
-110 -125 0
-107 -122 0
-108 -125 0
-109 -125 0
-106 -122 0
-107 -124 0
-106 -121 0
-106 -125 0
-109 -124 0
-108 -121 0
-107 -125 0
-107 -123 0
-110 -121 0
-110 -124 0
-106 -123 0
-108 -122 0
-109 -122 0
-106 -124 0
-109 -121 0
-109 -123 0
-107 -121 0
-107 -135 0
-108 -132 0
-109 -132 0
-108 -134 0
-110 -134 0
-106 -133 0
-107 -133 0
-110 -132 0
-107 -131 0
-106 -132 0
-106 -135 0
-109 -135 0
-110 -133 0
-106 -134 0
-110 -131 0
-109 -134 0
-108 -131 0
-107 -134 0
-106 -131 0
-107 -132 0
-109 -131 0
-108 -133 0
-113 -132 0
-114 -132 0
-112 -131 0
-111 -135 0
-112 -135 0
-112 -134 0
-114 -133 0
-113 -133 0
-114 -134 0
-111 -133 0
-115 -134 0
-114 -131 0
-115 -133 0
-114 -135 0
-113 -134 0
-113 -131 0
-111 -132 0
-115 -132 0
-112 -133 0
-111 -134 0
-113 -135 0
-115 -135 0
-115 -147 0
-113 -150 0
-113 -146 0
-115 -148 0
-114 -148 0
-114 -150 0
-111 -148 0
-111 -146 0
-112 -146 0
-113 -149 0
-112 -147 0
-114 -146 0
-112 -149 0
-112 -150 0
-111 -149 0
-111 -150 0
-115 -149 0
-114 -147 0
-111 -147 0
-114 -149 0
-113 -147 0
-113 -148 0
-118 -148 0
-120 -149 0
-116 -147 0
-117 -149 0
-120 -147 0
-119 -146 0
-117 -146 0
-118 -149 0
-116 -148 0
-119 -149 0
-118 -146 0
-119 -147 0
-117 -147 0
-120 -148 0
-117 -148 0
-118 -150 0
-119 -150 0
-117 -150 0
-116 -146 0
-120 -150 0
-116 -149 0
-119 -148 0
-123 -133 0
-125 -132 0
-123 -135 0
-124 -135 0
-121 -134 0
-122 -135 0
-125 -133 0
-122 -131 0
-121 -133 0
-125 -131 0
-123 -131 0
-123 -134 0
-125 -134 0
-123 -132 0
-121 -132 0
-125 -135 0
-121 -135 0
-122 -134 0
-122 -133 0
-124 -133 0
-124 -132 0
-124 -131 0
-126 -145 0
-129 -141 0
-128 -144 0
-130 -141 0
-130 -144 0
-128 -143 0
-130 -145 0
-129 -142 0
-130 -143 0
-126 -142 0
-126 -141 0
-130 -142 0
-129 -143 0
-127 -142 0
-128 -142 0
-129 -145 0
-129 -144 0
-126 -143 0
-128 -145 0
-127 -141 0
-126 -144 0
-127 -145 0
-134 -137 0
-135 -139 0
-131 -137 0
-133 -136 0
-133 -140 0
-131 -136 0
-135 -136 0
-132 -140 0
-134 -140 0
-133 -137 0
-134 -139 0
-133 -138 0
-131 -138 0
-132 -136 0
-133 -139 0
-132 -139 0
-131 -139 0
-134 -138 0
-132 -138 0
-134 -136 0
-135 -138 0
-132 -137 0
-137 -146 0
-140 -150 0
-138 -150 0
-137 -150 0
-137 -148 0
-136 -149 0
-140 -146 0
-139 -146 0
-139 -148 0
-140 -149 0
-138 -148 0
-137 -147 0
-136 -147 0
-138 -149 0
-136 -148 0
-139 -147 0
-138 -147 0
-140 -148 0
-140 -147 0
-138 -146 0
-137 -149 0
-139 -150 0
